% seed = 0

mint = 48;
% maxt = 251;

nActs = 92;
dur = [0,2,3,2,6,7,3,5,1,3,6,2,3,2,3,1,1,2,4,2,4,1,2,3,2,3,5,3,4,4,1,4,1,2,3,4,5,4,2,3,3,3,4,2,1,1,2,3,5,3,1,5,4,3,1,2,2,1,5,3,1,3,2,2,3,1,3,3,2,2,1,3,1,2,1,2,3,3,2,2,1,4,1,6,4,6,4,3,3,3,2,0];

nSkills = 15;
sreq = [| 0,0,0,0,0,0,0,0,0,0,0,0,0,0,0,
	| 0,0,0,0,0,1,0,0,0,0,0,0,0,0,0,
	| 0,0,0,0,0,0,0,1,0,1,0,1,0,2,0,
	| 0,0,0,0,0,2,0,0,2,0,1,2,0,1,0,
	| 0,0,0,0,0,1,0,1,0,0,0,2,1,0,0,
	| 0,0,0,0,0,0,0,0,2,0,0,4,0,0,1,
	| 0,0,0,0,0,1,0,0,0,0,0,1,0,0,0,
	| 0,1,0,1,0,0,0,0,0,0,1,0,1,0,0,
	| 0,0,0,0,0,1,1,0,1,0,1,0,0,1,0,
	| 1,0,0,0,0,0,0,0,1,0,1,2,0,0,1,
	| 0,0,0,0,0,0,0,0,0,0,1,3,0,0,1,
	| 0,0,0,0,0,1,0,0,0,0,0,0,0,1,1,
	| 0,0,0,0,0,0,0,0,0,0,0,2,0,0,0,
	| 0,0,0,0,0,0,0,0,2,0,0,3,0,0,0,
	| 0,0,0,0,0,0,0,0,0,0,0,1,0,1,0,
	| 0,0,0,0,0,0,0,1,0,0,0,1,0,0,0,
	| 0,1,1,0,1,0,0,0,1,0,0,1,0,0,1,
	| 0,0,0,1,0,0,0,0,1,1,2,0,0,1,0,
	| 0,0,0,0,0,0,1,0,1,0,0,1,0,1,0,
	| 0,0,0,0,1,0,0,0,1,0,0,1,0,0,0,
	| 1,0,0,1,0,0,0,0,0,1,0,2,1,1,0,
	| 0,0,1,0,1,0,1,1,0,0,1,2,1,0,0,
	| 0,0,0,1,0,0,1,0,0,0,0,1,1,0,0,
	| 0,0,0,0,0,0,0,0,0,0,0,1,0,0,0,
	| 0,0,0,0,0,1,0,0,0,0,0,0,0,1,1,
	| 0,0,0,0,0,0,0,0,0,0,1,1,0,0,0,
	| 0,0,0,0,0,1,0,2,1,0,1,0,0,0,2,
	| 0,0,0,0,2,0,0,0,0,0,0,1,2,1,0,
	| 0,0,0,0,0,1,0,0,2,1,0,0,1,0,1,
	| 0,1,0,1,0,1,0,0,0,1,0,2,0,0,1,
	| 0,0,0,0,0,0,0,0,0,1,0,0,0,0,0,
	| 0,1,0,0,1,0,0,2,0,0,0,0,0,0,1,
	| 0,0,1,0,0,0,1,0,0,0,0,0,0,0,1,
	| 0,0,1,0,0,1,1,0,2,0,1,0,1,0,0,
	| 0,0,1,0,0,0,0,0,0,0,0,2,0,0,0,
	| 0,0,1,0,1,0,0,0,0,0,1,1,0,1,0,
	| 0,0,0,0,1,0,0,2,0,0,1,0,0,0,0,
	| 0,0,1,1,0,0,0,1,1,1,1,1,0,1,0,
	| 0,0,0,0,0,0,0,0,1,0,0,0,0,0,0,
	| 0,0,0,0,1,0,1,0,2,0,2,0,0,0,1,
	| 0,0,0,0,0,1,0,0,0,0,2,2,1,0,1,
	| 0,0,1,0,0,1,0,0,1,0,0,0,0,0,1,
	| 1,0,0,1,0,0,0,0,0,0,2,1,0,1,1,
	| 0,1,0,0,0,1,0,0,1,0,0,1,0,1,1,
	| 1,0,0,0,0,1,1,0,0,0,0,1,0,1,2,
	| 0,1,0,0,0,0,0,0,0,1,0,1,0,0,0,
	| 0,0,0,0,0,0,0,0,0,0,0,0,0,1,0,
	| 0,0,0,0,0,2,0,0,1,0,0,0,0,0,0,
	| 0,0,0,0,0,1,0,0,0,1,1,1,0,0,1,
	| 0,0,0,0,0,0,0,1,2,0,1,0,0,0,1,
	| 0,0,0,2,0,0,1,2,0,0,0,0,0,0,0,
	| 0,0,0,0,0,0,0,0,0,0,0,1,1,0,0,
	| 0,0,0,0,0,0,0,1,1,0,0,1,0,0,0,
	| 0,0,0,0,0,1,0,1,0,0,0,0,0,2,1,
	| 0,0,0,0,0,1,0,0,0,0,0,1,0,0,0,
	| 0,0,0,0,0,1,0,1,0,0,0,0,1,1,1,
	| 0,0,0,1,0,0,0,0,2,0,0,4,1,0,0,
	| 0,0,0,0,0,0,0,0,0,0,2,0,0,1,1,
	| 0,0,0,0,2,0,0,0,4,0,0,2,0,0,0,
	| 0,0,0,1,0,1,1,0,0,0,2,0,0,0,0,
	| 0,0,0,0,0,0,0,0,1,1,0,3,1,0,0,
	| 0,0,0,2,1,0,0,0,1,0,0,2,0,0,1,
	| 0,0,1,0,1,0,0,0,0,0,0,0,0,0,1,
	| 0,0,0,1,0,0,0,0,1,0,2,0,0,1,1,
	| 0,0,0,0,1,0,0,0,0,0,0,1,1,0,0,
	| 0,0,0,0,0,1,1,2,0,0,1,0,0,1,0,
	| 1,0,0,1,1,0,0,0,1,0,2,0,1,1,0,
	| 0,0,0,0,0,0,0,0,0,0,2,1,0,0,0,
	| 0,0,0,0,0,3,0,0,0,0,1,0,1,0,0,
	| 0,0,1,1,0,1,0,2,0,0,0,0,1,0,1,
	| 0,0,1,0,1,0,0,2,0,0,1,1,0,0,1,
	| 0,0,0,0,0,1,0,0,0,0,1,0,0,1,0,
	| 1,0,0,0,1,0,0,0,2,0,2,1,0,1,0,
	| 0,0,0,0,0,0,0,0,0,0,0,1,0,0,1,
	| 0,1,0,0,0,0,0,0,0,0,1,0,0,0,0,
	| 0,1,0,0,2,0,0,0,1,0,1,0,1,0,0,
	| 0,1,1,1,0,0,0,0,0,0,0,1,0,1,0,
	| 0,0,0,0,1,0,0,0,0,0,0,0,1,1,1,
	| 0,0,1,0,0,0,0,0,0,0,1,1,0,0,0,
	| 0,1,1,1,0,1,0,0,0,0,0,2,1,1,0,
	| 0,0,1,0,1,0,0,0,1,0,1,1,0,0,1,
	| 0,0,0,0,1,0,0,0,1,0,1,3,0,1,0,
	| 0,0,1,0,0,0,0,0,0,0,1,3,0,0,1,
	| 0,0,0,0,0,0,0,0,1,0,0,1,0,1,0,
	| 0,2,0,0,0,1,0,0,0,0,0,0,1,0,0,
	| 0,0,1,1,0,0,1,0,0,0,0,0,2,1,1,
	| 0,1,0,0,1,0,0,0,0,0,0,2,0,1,1,
	| 0,0,0,0,0,0,0,0,1,0,0,0,1,1,0,
	| 0,0,0,0,0,1,0,1,1,0,1,0,0,0,0,
	| 0,0,0,0,0,0,1,0,0,0,0,0,0,0,0,
	| 0,0,0,0,0,0,0,0,1,0,0,1,0,1,0,
	| 0,0,0,0,0,0,0,0,0,0,0,0,0,0,0, |];

% SumOfsreq = 423;

nResources = 26;
mastery = [| false,false,false,false,false,false,false,false,false,false,false,false,true,true,true,
	| false,false,true,false,false,false,false,false,false,true,true,true,false,false,false,
	| false,false,false,true,true,true,false,false,false,false,false,false,false,false,false,
	| false,false,false,false,false,false,false,false,false,true,true,true,false,false,false,
	| false,false,false,false,false,false,false,false,false,false,false,false,true,true,true,
	| false,false,false,true,true,true,false,false,true,false,false,true,false,false,false,
	| false,false,false,false,false,false,false,false,false,false,false,false,false,false,true,
	| false,false,false,false,false,false,false,false,false,false,false,true,false,false,false,
	| false,false,false,false,false,false,false,false,true,false,false,false,false,false,false,
	| true,true,true,false,false,false,false,false,false,false,false,false,false,false,false,
	| false,false,false,false,false,false,false,true,true,false,false,false,true,true,true,
	| false,false,false,false,false,false,false,false,false,false,true,true,false,false,false,
	| false,true,true,false,false,false,false,false,false,false,false,false,false,false,false,
	| false,false,false,false,false,false,false,false,false,false,true,true,false,false,false,
	| false,false,false,true,true,true,false,false,false,false,false,false,false,false,false,
	| false,false,false,false,false,false,false,true,true,false,false,false,false,false,false,
	| false,false,false,false,false,false,false,false,false,false,false,false,true,true,true,
	| false,false,false,false,false,true,false,false,false,false,false,false,false,false,false,
	| false,false,false,false,false,false,false,false,false,false,false,false,false,false,true,
	| false,false,false,true,true,true,false,false,false,false,false,false,false,false,false,
	| false,false,false,false,false,false,false,false,false,false,true,true,false,false,false,
	| false,false,false,false,false,false,false,false,false,false,false,true,false,false,false,
	| false,false,false,false,false,false,true,true,true,false,false,false,false,false,false,
	| false,false,false,false,false,false,false,false,false,true,true,true,false,false,false,
	| false,false,true,false,false,false,true,true,true,false,false,false,false,false,false,
	| false,false,false,true,true,true,false,false,false,false,false,false,false,false,false, |];

nPrecs = 138;
pred = [1,1,1,2,3,3,3,4,4,4,5,5,5,6,6,6,7,8,8,8,9,9,10,10,10,11,11,11,12,13,13,13,14,14,15,15,15,16,16,17,18,18,18,19,20,20,21,21,22,23,23,23,24,25,25,26,26,26,27,27,27,28,28,29,29,29,30,30,31,32,33,34,35,35,36,37,38,39,39,40,40,41,42,43,44,45,45,46,47,48,49,49,50,51,52,53,54,55,56,57,58,58,59,60,61,62,63,64,65,66,67,68,69,70,70,71,72,73,74,75,76,77,78,79,79,80,81,82,83,84,85,86,86,87,88,89,90,91];
succ = [2,3,4,31,5,22,7,35,38,80,11,13,6,9,12,8,15,27,37,43,81,10,17,33,20,17,19,23,61,19,14,48,49,54,18,21,16,55,40,60,27,28,24,36,29,78,50,47,45,25,26,82,41,30,63,57,34,42,73,52,77,75,46,91,71,39,72,32,70,79,77,44,54,47,58,87,43,66,87,83,53,85,69,62,56,84,61,70,77,67,51,59,63,67,68,74,75,56,60,58,68,64,62,64,71,65,64,71,68,79,69,76,91,78,86,76,91,88,84,84,86,82,80,89,85,87,86,90,88,85,90,90,88,89,89,92,92,92];

nUnrels = 3089;
unpred = [2,2,2,2,2,2,2,2,2,2,2,2,2,2,2,2,2,2,2,2,2,2,2,2,2,2,2,2,2,2,2,2,2,2,2,2,2,2,2,2,2,2,2,2,2,2,2,2,2,2,2,2,2,2,2,2,2,2,2,2,2,2,2,2,2,2,2,2,2,2,2,2,2,2,2,2,2,2,2,2,3,3,3,3,4,4,4,4,4,4,4,4,4,4,4,4,4,4,4,4,4,4,4,4,4,4,4,4,4,4,4,4,4,4,4,4,4,4,4,4,4,4,4,4,4,4,4,4,4,4,4,4,4,4,4,4,4,4,4,4,4,4,4,4,4,4,4,4,4,4,4,5,5,5,5,5,5,5,5,5,5,5,5,5,5,5,5,5,5,5,5,5,5,6,6,6,6,6,6,6,6,6,6,6,6,6,6,6,6,6,6,6,6,6,6,6,6,6,6,6,6,6,6,6,6,6,6,6,6,6,6,6,6,6,6,6,6,6,6,6,6,6,7,7,7,7,7,7,7,7,7,7,7,7,7,7,7,7,7,7,7,7,7,7,7,7,7,7,7,7,7,7,7,7,7,7,7,7,7,7,7,7,7,7,7,7,7,7,8,8,8,8,8,8,8,8,8,8,8,8,8,8,8,8,8,8,8,8,8,8,8,8,8,8,8,8,8,8,8,8,8,8,8,8,8,8,8,8,8,8,8,8,8,8,8,8,8,8,8,8,8,8,8,8,8,8,8,8,8,8,8,8,8,8,8,9,9,9,9,9,9,9,9,9,9,9,9,9,9,9,9,9,9,9,9,9,9,9,9,9,9,9,9,9,9,9,9,9,9,9,9,9,9,9,9,9,9,9,9,9,9,9,9,9,9,9,9,9,9,9,9,9,9,10,10,10,10,10,10,10,10,10,10,10,10,10,10,10,10,10,10,10,10,10,10,10,10,10,10,10,10,10,10,10,10,10,10,10,10,10,10,10,10,10,10,10,10,10,10,10,10,10,10,10,10,10,10,10,10,10,10,10,11,11,11,11,11,11,11,11,11,11,11,11,11,11,11,11,11,11,11,11,11,11,11,11,11,11,11,11,11,11,11,11,11,11,11,11,11,11,11,11,11,11,11,11,11,11,11,11,11,11,12,12,12,12,12,12,12,12,12,12,12,12,12,12,12,12,12,12,12,12,12,12,12,12,12,12,12,12,12,12,12,12,12,12,12,12,12,12,12,12,12,12,12,12,12,12,12,12,12,12,12,12,12,12,12,12,12,12,12,12,12,12,12,12,12,12,12,12,12,12,12,12,13,13,13,13,13,13,13,13,13,13,13,13,13,13,13,13,13,13,13,13,13,13,13,13,13,13,13,13,13,13,13,13,13,13,13,13,13,13,13,13,13,13,13,13,13,13,13,13,13,13,13,13,13,14,14,14,14,14,14,14,14,14,14,14,14,14,14,14,14,14,14,14,14,14,14,14,14,14,14,14,14,14,14,14,14,14,14,14,14,14,14,14,14,14,14,14,14,14,14,14,14,14,14,14,14,14,14,14,14,14,14,14,15,15,15,15,15,15,15,15,15,15,15,15,15,15,15,15,15,15,15,15,15,15,15,15,15,15,15,15,15,15,15,15,15,15,15,15,15,15,15,16,16,16,16,16,16,16,16,16,16,16,16,16,16,16,16,16,16,16,16,16,16,16,16,16,16,16,16,16,16,16,16,16,16,16,16,16,16,16,16,16,16,16,16,16,16,16,16,16,16,16,16,16,16,16,16,16,16,16,17,17,17,17,17,17,17,17,17,17,17,17,17,17,17,17,17,17,17,17,17,17,17,17,17,17,17,17,17,17,17,17,17,17,17,17,17,17,17,17,17,17,17,17,17,17,17,17,17,17,17,17,17,17,17,17,17,17,17,17,17,17,17,17,17,17,18,18,18,18,18,18,18,18,18,18,18,18,18,18,18,18,18,18,18,18,18,18,18,18,18,18,18,18,18,18,18,18,18,18,18,18,18,18,18,18,18,18,18,18,18,18,18,18,18,18,18,19,19,19,19,19,19,19,19,19,19,19,19,19,19,19,19,19,19,19,19,19,19,19,19,19,19,19,19,19,19,19,19,19,19,19,19,19,19,19,19,19,19,19,19,19,19,19,19,19,19,19,19,19,19,19,19,19,19,19,19,19,19,20,20,20,20,20,20,20,20,20,20,20,20,20,20,20,20,20,20,20,20,20,20,20,20,20,20,20,20,20,20,20,20,20,20,20,20,20,20,20,20,20,20,20,20,20,20,20,20,20,20,20,20,20,20,20,20,21,21,21,21,21,21,21,21,21,21,21,21,21,21,21,21,21,21,21,21,21,21,21,21,21,21,21,21,21,21,21,21,21,21,21,21,21,21,21,21,21,21,21,21,21,21,21,21,21,21,21,21,21,21,21,21,21,21,22,22,22,22,22,22,22,22,22,22,22,22,22,22,22,22,22,22,22,22,22,22,22,22,22,22,22,22,22,22,22,22,22,22,22,22,22,22,22,22,22,22,22,22,22,22,22,22,22,22,22,22,22,22,22,22,22,22,22,23,23,23,23,23,23,23,23,23,23,23,23,23,23,23,23,23,23,23,23,23,23,23,23,23,23,23,23,23,23,23,23,23,23,23,23,23,23,23,23,23,23,24,24,24,24,24,24,24,24,24,24,24,24,24,24,24,24,24,24,24,24,24,24,24,24,24,24,24,24,24,24,24,24,24,24,24,24,24,24,24,24,24,24,24,24,24,24,24,24,24,24,24,24,24,24,24,24,24,24,24,24,24,24,24,24,25,25,25,25,25,25,25,25,25,25,25,25,25,25,25,25,25,25,25,25,25,25,25,25,25,25,25,25,25,25,25,25,25,25,25,25,25,25,25,25,25,25,25,25,25,25,25,25,25,25,25,25,26,26,26,26,26,26,26,26,26,26,26,26,26,26,26,26,26,26,26,26,26,26,26,26,26,26,26,26,26,26,26,26,26,26,26,26,26,26,26,26,26,26,26,26,26,26,26,26,27,27,27,27,27,27,27,27,27,27,27,27,27,27,27,27,27,27,27,27,27,27,27,27,27,27,27,27,27,27,27,27,27,27,27,27,27,27,27,27,27,27,27,27,27,27,27,27,27,27,27,27,27,27,28,28,28,28,28,28,28,28,28,28,28,28,28,28,28,28,28,28,28,28,28,28,28,28,28,28,28,28,28,28,28,28,28,28,28,28,28,28,28,28,28,28,28,28,28,28,28,28,28,28,28,29,29,29,29,29,29,29,29,29,29,29,29,29,29,29,29,29,29,29,29,29,29,29,29,29,29,29,29,29,29,29,29,29,29,29,29,29,29,29,29,29,29,29,29,29,29,29,29,29,29,30,30,30,30,30,30,30,30,30,30,30,30,30,30,30,30,30,30,30,30,30,30,30,30,30,30,30,30,30,30,30,30,30,30,30,30,30,30,30,30,30,30,30,30,30,30,30,30,30,30,30,30,30,30,31,31,31,31,31,31,31,31,31,31,31,31,31,31,31,31,31,31,31,31,31,31,31,31,31,31,31,31,31,31,31,31,31,31,31,31,31,31,31,31,31,31,31,31,31,31,31,31,31,31,31,31,32,32,32,32,32,32,32,32,32,32,32,32,32,32,32,32,32,32,32,32,32,32,32,32,32,32,32,32,32,32,32,32,32,32,32,32,32,32,32,32,32,32,32,32,32,32,32,32,32,32,32,32,32,32,32,33,33,33,33,33,33,33,33,33,33,33,33,33,33,33,33,33,33,33,33,33,33,33,33,33,33,33,33,33,33,33,33,33,33,33,33,33,33,33,33,33,33,33,33,33,33,33,33,33,33,33,33,33,33,33,34,34,34,34,34,34,34,34,34,34,34,34,34,34,34,34,34,34,34,34,34,34,34,34,34,34,34,34,34,34,34,34,34,34,34,34,34,34,34,34,34,34,34,34,34,34,34,35,35,35,35,35,35,35,35,35,35,35,35,35,35,35,35,35,35,35,35,35,35,35,35,35,35,35,35,35,35,35,35,35,35,35,35,35,35,35,35,35,35,35,35,35,35,35,35,36,36,36,36,36,36,36,36,36,36,36,36,36,36,36,36,36,36,36,36,36,36,36,36,36,36,36,36,36,36,36,36,36,36,36,36,36,36,36,36,36,36,36,36,36,36,37,37,37,37,37,37,37,37,37,37,37,37,37,37,37,37,37,37,37,37,37,37,37,37,37,37,37,37,37,37,37,37,37,37,37,37,37,37,37,37,37,37,37,37,37,37,37,37,37,37,37,37,38,38,38,38,38,38,38,38,38,38,38,38,38,38,38,38,38,38,38,38,38,38,38,38,38,38,38,38,38,38,38,38,38,38,38,38,38,38,38,38,38,38,38,38,39,39,39,39,39,39,39,39,39,39,39,39,39,39,39,39,39,39,39,39,39,39,39,39,39,39,39,39,39,39,39,39,39,39,39,39,39,39,39,39,39,39,39,39,39,39,40,40,40,40,40,40,40,40,40,40,40,40,40,40,40,40,40,40,40,40,40,40,40,40,40,40,40,40,40,40,40,40,40,40,40,40,40,40,40,40,40,40,40,41,41,41,41,41,41,41,41,41,41,41,41,41,41,41,41,41,41,41,41,41,41,41,41,41,41,41,41,41,41,41,41,41,41,41,41,41,41,41,41,41,41,41,41,41,41,41,41,42,42,42,42,42,42,42,42,42,42,42,42,42,42,42,42,42,42,42,42,42,42,42,42,42,42,42,42,42,42,42,42,42,42,42,42,42,42,42,42,42,42,42,42,42,42,42,43,43,43,43,43,43,43,43,43,43,43,43,43,43,43,43,43,43,43,43,43,43,43,43,43,43,43,43,43,43,43,43,43,43,43,43,43,43,43,43,44,44,44,44,44,44,44,44,44,44,44,44,44,44,44,44,44,44,44,44,44,44,44,44,44,44,44,44,44,44,44,44,44,44,44,44,44,44,45,45,45,45,45,45,45,45,45,45,45,45,45,45,45,45,45,45,45,45,45,45,45,45,45,45,45,45,45,45,45,45,45,45,45,45,45,46,46,46,46,46,46,46,46,46,46,46,46,46,46,46,46,46,46,46,46,46,46,46,46,46,46,46,46,46,46,46,46,46,46,46,46,46,47,47,47,47,47,47,47,47,47,47,47,47,47,47,47,47,47,47,47,47,47,47,47,47,47,47,47,47,47,47,47,47,47,47,47,47,47,47,47,47,47,48,48,48,48,48,48,48,48,48,48,48,48,48,48,48,48,48,48,48,48,48,48,48,48,48,48,48,48,48,48,48,48,48,48,48,48,48,48,48,48,49,49,49,49,49,49,49,49,49,49,49,49,49,49,49,49,49,49,49,49,49,49,49,49,49,49,49,49,49,50,50,50,50,50,50,50,50,50,50,50,50,50,50,50,50,50,50,50,50,50,50,50,50,50,50,50,50,50,50,50,50,50,51,51,51,51,51,51,51,51,51,51,51,51,51,51,51,51,51,51,51,51,51,51,51,51,51,51,51,51,51,51,51,51,51,51,51,51,51,52,52,52,52,52,52,52,52,52,52,52,52,52,52,52,52,52,52,52,52,52,52,52,52,52,52,52,52,52,52,52,52,52,53,53,53,53,53,53,53,53,53,53,53,53,53,53,53,53,53,53,53,53,53,53,53,53,53,53,53,53,53,53,53,53,53,53,54,54,54,54,54,54,54,54,54,54,54,54,54,54,54,54,54,54,54,54,54,54,54,54,54,54,54,54,54,54,54,54,54,55,55,55,55,55,55,55,55,55,55,55,55,55,55,55,55,55,55,55,55,55,55,55,55,55,55,55,56,56,56,56,56,56,56,56,56,56,56,56,56,56,56,56,56,56,56,56,56,56,56,56,56,56,56,57,57,57,57,57,57,57,57,57,57,57,57,57,57,57,57,57,57,57,57,57,57,57,57,57,58,58,58,58,58,58,58,58,58,58,58,58,58,58,58,58,58,58,58,58,58,58,58,58,58,59,59,59,59,59,59,59,59,59,59,59,59,59,59,59,59,59,59,59,59,59,59,59,59,60,60,60,60,60,60,60,60,60,60,60,60,60,60,60,60,60,60,60,60,60,60,60,60,61,61,61,61,61,61,61,61,61,61,61,61,61,61,61,61,61,61,61,61,61,61,61,61,62,62,62,62,62,62,62,62,62,62,62,62,62,62,62,62,62,62,62,62,62,62,63,63,63,63,63,63,63,63,63,63,63,63,63,63,63,63,63,63,63,63,63,64,64,64,64,64,64,64,64,64,64,64,64,64,64,64,64,64,64,64,64,64,65,65,65,65,65,65,65,65,65,65,65,65,65,65,65,65,65,65,65,65,66,66,66,66,66,66,66,66,66,66,66,66,66,66,66,66,66,66,66,66,66,67,67,67,67,67,67,67,67,67,67,67,67,67,67,67,67,67,67,67,67,67,67,68,68,68,68,68,68,68,68,68,68,68,68,68,68,68,68,68,68,69,69,69,69,69,69,69,69,69,69,69,69,69,69,69,69,69,69,69,69,69,70,70,70,70,70,70,70,70,70,70,70,70,70,70,71,71,71,71,71,71,71,71,71,71,71,71,71,71,71,72,72,72,72,72,72,72,72,72,72,72,72,72,72,72,72,72,72,73,73,73,73,73,73,73,73,73,73,73,73,73,73,73,73,74,74,74,74,74,74,74,74,74,74,74,74,74,74,75,75,75,75,75,75,75,75,75,75,75,75,75,76,76,76,76,76,76,76,76,76,76,76,77,77,77,77,77,77,77,77,77,77,77,77,78,78,78,78,78,78,78,78,78,78,79,79,79,79,79,79,79,79,79,80,80,80,80,80,80,80,80,80,81,81,81,81,81,81,82,82,82,82,82,82,82,82,83,83,83,83,83,83,84,84,84,84,84,85,85,85,85,85,86,86,87,87,87,88,88,89,89,90];
unsucc = [3,4,5,6,7,8,9,10,11,12,13,14,15,16,17,18,19,20,21,22,23,24,25,26,27,28,29,30,32,33,34,35,36,37,38,39,40,41,42,43,44,45,46,47,48,49,50,51,52,53,54,55,56,57,58,59,60,61,62,63,64,65,66,67,68,69,71,72,73,74,75,76,77,79,81,82,83,84,85,91,4,31,35,38,5,6,7,8,9,10,11,12,13,14,15,16,17,18,19,20,21,22,23,24,25,26,27,28,29,30,31,32,33,34,36,37,39,40,41,42,44,45,46,48,49,50,51,52,53,55,56,57,58,59,60,61,63,64,66,67,69,70,71,72,73,74,78,79,81,83,91,7,15,16,18,21,22,24,28,31,35,38,40,41,45,46,47,50,53,55,70,74,83,7,11,13,14,15,16,18,19,21,22,23,24,25,26,28,30,31,32,34,35,36,38,40,41,42,44,45,46,47,48,49,50,51,53,54,55,56,57,58,59,63,67,69,70,72,74,75,83,84,8,9,10,11,12,13,14,17,19,20,22,23,25,26,29,30,31,32,33,34,35,36,37,38,39,42,43,44,45,48,49,51,54,57,58,59,61,62,65,66,67,69,72,79,81,91,9,10,11,12,13,14,15,16,17,18,19,20,21,22,23,24,25,26,28,29,30,31,32,33,34,35,36,38,39,40,41,42,44,45,46,47,48,49,50,51,53,54,55,56,57,58,59,60,61,63,64,66,67,69,70,71,72,74,75,78,79,80,81,83,84,85,91,11,12,13,14,15,16,18,19,21,22,23,24,25,26,27,28,30,31,32,34,35,36,37,38,40,41,42,43,44,45,46,47,48,49,50,51,52,53,54,55,56,57,58,59,61,62,63,65,67,68,69,70,72,73,74,75,83,84,11,12,13,14,15,16,18,19,21,22,23,24,25,26,27,28,30,31,32,34,35,36,37,38,40,41,42,43,44,45,46,47,48,49,50,51,52,53,54,55,56,57,58,59,61,62,63,65,67,68,69,70,72,73,74,75,81,83,84,12,13,14,15,16,18,20,21,22,24,27,28,29,31,33,35,37,38,39,40,41,43,45,46,47,48,49,50,51,52,53,54,55,59,61,62,65,66,67,70,73,74,75,77,78,80,81,83,84,87,13,14,15,16,17,18,19,20,21,22,23,24,25,26,27,28,29,30,31,32,33,34,35,36,37,38,39,40,41,42,43,44,45,46,47,48,49,50,51,52,53,54,55,56,57,58,59,60,62,63,64,65,66,67,68,69,70,72,73,74,75,77,78,79,80,81,82,83,84,85,87,91,15,16,17,18,20,21,22,23,24,25,26,27,28,29,30,31,32,33,34,35,37,38,39,40,41,42,43,44,45,46,47,50,52,53,55,56,57,60,61,63,66,70,72,73,74,77,78,79,80,81,82,83,87,15,16,17,18,19,20,21,22,23,24,25,26,27,28,29,30,31,32,33,34,35,36,37,38,39,40,41,42,43,44,45,46,47,48,50,52,53,55,56,57,58,60,61,63,64,66,70,71,72,73,74,77,78,79,80,81,82,83,87,17,19,20,22,23,25,26,29,30,31,32,33,34,35,36,37,38,39,42,43,44,45,48,49,51,54,57,58,59,61,62,65,66,67,69,72,79,81,91,17,18,19,20,21,22,23,24,25,26,27,28,29,30,31,32,33,34,35,36,37,38,39,41,42,43,44,45,46,47,48,49,50,51,52,54,57,58,59,61,62,63,65,66,67,68,69,70,72,73,75,77,78,79,80,81,82,87,91,18,19,20,21,22,23,24,25,26,27,28,29,30,31,32,33,34,35,36,37,38,39,40,41,42,43,44,45,46,47,48,49,50,51,52,53,54,55,56,57,58,59,61,62,63,65,66,67,68,69,70,72,73,74,75,77,78,79,80,81,82,83,84,85,87,91,19,20,21,22,23,25,26,29,30,31,32,33,34,35,36,37,38,39,40,42,43,44,45,47,48,49,50,51,53,54,55,56,57,58,59,60,61,62,63,64,65,66,67,69,71,72,74,79,81,83,91,20,21,22,23,24,25,26,27,28,29,30,31,32,33,34,35,37,38,39,40,41,42,43,44,45,46,47,48,49,50,51,52,53,54,55,56,57,59,60,61,62,63,65,66,67,69,70,72,73,74,75,77,78,79,80,81,82,83,84,85,87,91,21,22,23,24,25,26,27,28,30,31,32,33,34,35,36,37,38,40,41,42,43,44,45,46,47,48,49,50,51,52,53,54,55,56,57,58,59,60,61,62,63,64,65,67,68,69,70,72,73,74,75,77,81,82,83,84,22,23,24,25,26,27,28,29,30,31,32,33,34,35,36,37,38,39,40,41,42,43,44,45,46,48,49,51,52,53,54,55,56,57,58,59,60,61,62,65,66,67,68,69,70,72,73,74,75,78,79,80,81,83,84,85,87,91,23,24,25,26,27,28,29,30,31,32,33,34,35,36,37,38,39,40,41,42,43,44,46,47,48,49,50,51,52,53,54,55,56,57,58,59,60,62,63,64,65,66,67,68,69,70,72,73,74,75,77,78,79,80,81,82,83,87,91,24,27,28,29,31,33,35,36,37,38,39,40,41,43,45,46,47,48,49,50,51,52,53,54,55,59,61,62,65,66,67,70,73,74,75,77,78,80,81,83,84,87,25,26,27,28,29,30,31,32,33,34,35,36,37,38,39,40,42,43,44,45,46,47,48,49,50,51,52,53,54,55,56,57,58,59,60,61,62,63,64,65,66,67,68,69,70,71,72,73,74,75,76,77,78,79,80,81,82,83,84,86,87,88,89,91,26,27,28,29,31,33,34,35,36,37,38,39,40,41,42,43,44,45,46,47,48,49,50,51,52,53,54,55,56,57,58,59,60,61,62,65,66,67,68,69,70,73,74,75,77,78,80,81,82,83,84,87,27,28,29,30,31,32,33,35,36,37,38,39,40,41,43,45,46,47,48,49,50,51,52,53,54,55,59,61,62,63,65,66,67,70,72,73,74,75,77,78,79,80,81,82,83,84,85,87,28,29,30,31,32,33,34,35,36,37,38,39,40,41,42,43,44,45,46,47,48,49,50,51,53,54,55,56,57,58,59,60,61,62,63,64,65,66,67,69,70,71,72,74,75,78,79,80,81,83,84,85,87,91,29,30,31,32,33,34,35,36,37,38,39,40,41,42,43,44,45,47,48,49,50,51,52,53,54,55,56,57,58,59,60,61,62,63,64,65,66,67,68,69,71,72,73,74,76,77,79,81,82,83,91,30,31,32,33,34,35,36,37,38,40,41,42,43,44,45,46,47,48,49,50,51,52,53,54,55,56,57,58,59,60,61,62,63,64,65,67,68,69,70,72,73,74,75,77,78,80,81,82,83,84,31,33,34,35,36,37,38,39,40,41,42,43,44,45,46,47,48,49,50,51,52,53,54,55,56,57,58,59,60,61,62,63,64,65,66,67,68,69,70,71,73,74,75,76,77,78,80,81,82,83,84,86,87,88,32,33,34,35,36,37,38,39,40,41,42,43,44,45,46,47,48,49,50,51,52,53,54,55,56,57,58,59,60,61,62,63,64,65,66,67,68,69,71,72,73,74,75,76,77,79,81,82,83,84,85,91,33,34,35,36,37,38,39,40,41,42,43,44,45,46,47,48,49,50,51,52,53,54,55,56,57,58,59,60,61,62,63,64,65,66,67,68,69,70,71,72,73,74,75,76,77,78,80,81,82,83,84,86,87,88,91,34,35,36,37,38,39,40,41,42,43,44,45,46,47,48,49,50,51,52,53,54,55,56,57,58,59,60,61,62,63,64,65,66,67,68,69,70,71,72,73,74,75,76,78,79,80,81,83,84,85,86,87,88,89,91,35,36,37,38,39,40,41,42,43,45,46,47,48,49,50,51,52,53,54,55,57,58,59,61,62,63,65,66,67,68,69,70,72,73,74,75,77,78,79,80,81,82,83,84,85,87,91,36,37,38,39,40,41,42,43,44,45,46,48,49,50,51,52,53,55,56,57,58,59,60,61,62,63,64,65,66,67,68,69,70,71,72,73,74,76,78,79,80,81,83,86,87,88,89,91,37,38,39,40,41,42,43,44,45,46,47,48,49,50,51,52,53,54,55,56,57,59,60,61,62,63,65,66,67,69,70,72,73,74,75,77,78,79,80,81,82,83,84,85,87,91,38,39,40,41,42,43,44,45,46,47,48,49,50,51,52,53,54,55,56,57,58,59,60,61,62,63,64,65,66,67,68,69,70,71,72,73,74,75,76,77,78,79,80,81,82,83,84,85,86,88,90,91,39,40,41,42,44,45,46,47,48,49,50,51,52,53,54,55,56,57,58,59,60,61,63,64,66,67,69,70,71,72,73,74,75,77,78,79,80,81,82,83,84,85,87,91,40,41,42,43,44,45,46,47,48,49,50,51,52,53,54,55,56,57,58,59,60,61,62,63,64,65,67,68,69,70,71,72,73,74,75,76,77,78,80,81,82,83,84,86,88,91,41,42,43,44,45,46,47,48,49,50,51,52,54,55,56,57,58,59,60,61,62,63,64,65,66,67,68,69,70,71,72,73,75,76,77,78,79,80,81,82,86,87,91,42,43,44,45,46,47,48,49,50,51,52,53,54,55,56,57,58,59,60,61,62,63,64,65,66,67,68,69,70,71,72,73,74,75,76,77,78,79,80,81,82,83,84,86,87,88,89,91,43,44,45,46,47,48,49,50,51,52,53,54,55,56,57,58,59,60,61,62,63,64,65,66,67,68,70,71,72,73,74,75,76,77,78,79,80,81,82,83,84,85,86,87,88,89,90,44,45,46,47,48,49,50,51,52,53,54,55,56,57,58,59,60,61,63,64,66,67,69,70,71,72,73,74,75,77,78,79,80,81,82,83,84,85,87,91,45,46,47,48,49,50,51,52,53,54,55,57,58,59,61,62,63,65,66,67,68,69,70,72,73,74,75,77,78,79,80,81,82,83,84,85,87,91,46,47,48,49,50,51,52,53,54,55,56,57,58,59,60,62,63,64,65,66,67,68,69,70,72,73,74,75,77,78,79,80,81,82,83,87,91,47,48,49,50,51,52,53,54,55,56,57,58,59,60,61,62,63,64,65,66,67,68,69,71,72,73,74,75,76,77,79,81,82,83,84,85,91,48,49,50,51,52,53,54,55,56,57,58,59,60,61,62,63,64,65,66,67,68,69,70,71,72,73,74,75,76,78,79,80,81,83,84,85,86,87,88,89,91,49,50,51,52,53,54,55,56,57,58,59,60,61,62,63,64,65,66,68,70,71,72,73,74,75,76,77,78,79,80,81,82,83,84,85,86,87,88,89,90,50,52,53,54,55,56,57,58,60,61,63,64,66,70,71,72,73,74,75,77,78,79,80,81,82,83,84,85,87,51,52,53,54,55,56,57,58,59,60,61,62,65,66,67,68,69,70,72,73,74,75,77,78,79,80,81,82,83,84,85,87,91,52,53,54,55,56,57,58,59,60,61,62,63,64,65,66,68,70,71,72,73,74,75,76,77,78,79,80,81,82,83,84,85,86,87,88,89,90,53,54,55,56,57,58,59,60,61,62,63,64,65,66,67,69,70,71,72,73,74,75,77,78,79,80,81,82,83,84,85,87,91,54,55,56,57,58,59,60,61,62,63,64,65,66,67,68,69,70,71,72,73,75,76,77,78,79,80,81,82,83,86,87,88,89,91,55,56,57,58,59,60,61,62,63,64,65,66,67,68,69,70,71,72,73,74,76,77,78,79,80,81,82,83,86,87,88,89,91,57,58,59,61,62,63,65,66,67,68,69,70,72,73,74,75,77,78,79,80,81,82,83,84,85,87,91,57,58,59,61,62,63,65,66,67,68,69,70,72,73,74,75,77,78,79,80,81,82,83,84,85,87,91,59,60,61,62,63,65,66,67,69,70,72,73,74,75,77,78,79,80,81,82,83,84,85,87,91,59,60,61,62,63,65,66,67,69,70,72,73,74,75,77,78,79,80,81,82,83,84,85,87,91,60,61,63,64,66,67,69,70,71,72,73,74,75,77,78,79,80,81,82,83,84,85,87,91,61,62,63,65,66,67,68,69,70,72,73,74,75,77,78,79,80,81,82,83,84,85,87,91,62,63,64,65,66,67,68,69,70,72,73,74,75,77,78,79,80,81,82,83,84,85,87,91,63,64,66,67,69,70,71,72,73,74,75,77,78,79,80,81,82,83,84,85,87,91,65,66,67,68,69,70,72,73,74,75,77,78,79,80,81,82,83,84,85,87,91,65,66,67,68,69,70,72,73,74,75,77,78,79,80,81,82,83,84,85,87,91,66,67,69,70,71,72,73,74,75,77,78,79,80,81,82,83,84,85,87,91,67,68,69,70,71,72,73,74,75,76,77,78,80,81,82,83,84,86,87,88,91,68,70,71,72,73,74,75,76,77,78,79,80,81,82,83,84,85,86,87,88,89,90,69,70,71,72,73,74,75,77,78,79,80,81,82,83,84,85,87,91,70,71,72,73,74,75,76,77,78,79,80,81,82,83,84,85,86,87,88,89,90,71,72,73,74,75,76,77,79,81,82,83,84,85,91,72,73,74,75,77,78,79,80,81,82,83,84,85,87,91,73,74,75,76,77,78,79,80,81,82,83,84,85,86,87,88,89,90,74,75,76,77,78,79,80,81,82,83,84,85,86,87,90,91,75,76,77,78,79,80,81,82,83,86,87,88,89,91,76,77,78,79,80,81,82,83,86,87,88,89,91,77,78,79,80,81,82,83,84,85,87,91,78,79,80,81,83,84,85,86,87,88,89,91,79,81,82,83,84,85,86,88,90,91,80,81,82,83,84,86,87,88,91,81,82,83,84,85,86,88,90,91,82,83,84,85,87,91,83,84,85,86,87,88,89,91,84,85,86,87,90,91,86,87,88,89,91,86,87,88,89,91,87,91,88,90,91,90,91,90,91,91];

USEFUL_RES = [{},
	{3,6,15,18,20,26},
	{1,2,4,5,6,8,11,12,14,16,17,21,22,23,24,25},
	{1,2,3,4,5,6,8,9,11,12,14,15,16,17,18,20,21,22,23,24,25,26},
	{1,2,3,4,5,6,8,11,12,14,15,16,17,18,20,21,22,23,24,25,26},
	{1,2,4,5,6,7,8,9,11,12,14,16,17,19,21,22,23,24,25},
	{2,3,4,6,8,12,14,15,18,20,21,22,24,26},
	{1,2,3,4,5,6,10,11,12,13,14,15,17,20,21,24,26},
	{1,2,3,4,5,6,9,11,12,14,15,16,17,18,20,21,23,24,25,26},
	{1,2,4,5,6,7,8,9,10,11,12,14,16,17,19,21,22,23,24,25},
	{1,2,4,5,6,7,8,11,12,14,17,19,21,22,24},
	{1,3,5,6,7,11,15,17,18,19,20,26},
	{2,4,6,8,12,14,21,22,24},
	{2,4,6,8,9,11,12,14,16,21,22,23,24,25},
	{1,2,4,5,6,8,11,12,14,17,21,22,24},
	{2,4,6,8,11,12,14,16,21,22,23,24,25},
	{1,2,3,4,5,6,7,8,9,10,11,12,13,14,15,16,17,19,20,21,22,23,24,25,26},
	{1,2,3,4,5,6,9,11,12,14,15,16,17,20,21,23,24,25,26},
	{1,2,4,5,6,8,9,11,12,14,16,17,21,22,23,24,25},
	{2,3,4,6,8,9,11,12,14,15,16,20,21,22,23,24,25,26},
	{1,2,3,4,5,6,8,10,11,12,14,15,17,20,21,22,24,26},
	{1,2,3,4,5,6,8,10,11,12,13,14,15,16,17,20,21,22,23,24,25,26},
	{1,2,3,4,5,6,8,11,12,14,15,17,20,21,22,23,24,25,26},
	{2,4,6,8,12,14,21,22,24},
	{1,3,5,6,7,11,15,17,18,19,20,26},
	{2,4,6,8,12,14,21,22,24},
	{1,2,3,4,5,6,7,9,11,12,14,15,16,17,18,19,20,21,23,24,25,26},
	{1,2,3,4,5,6,8,11,12,14,15,17,20,21,22,24,26},
	{1,2,3,4,5,6,7,9,11,15,16,17,18,19,20,23,24,25,26},
	{1,2,3,4,5,6,7,8,10,11,12,13,14,15,17,18,19,20,21,22,24,26},
	{2,4,24},
	{1,3,5,6,7,10,11,13,15,16,17,19,20,23,25,26},
	{1,2,5,7,10,11,13,17,19,23,25},
	{1,2,3,4,5,6,9,10,11,12,13,14,15,16,17,18,20,21,23,24,25,26},
	{2,4,6,8,10,12,13,14,21,22,24,25},
	{1,2,3,4,5,6,8,10,11,12,13,14,15,17,20,21,22,24,25,26},
	{2,3,4,6,11,12,14,15,16,20,21,23,24,25,26},
	{1,2,3,4,5,6,8,9,10,11,12,13,14,15,16,17,20,21,22,23,24,25,26},
	{6,9,11,16,23,25},
	{1,2,3,4,5,6,7,9,11,12,14,15,16,17,19,20,21,23,24,25,26},
	{1,2,3,4,5,6,7,8,11,12,14,15,17,18,19,20,21,22,24,26},
	{1,2,3,5,6,7,9,10,11,13,15,16,17,18,19,20,23,25,26},
	{1,2,3,4,5,6,7,8,10,11,12,14,15,17,19,20,21,22,24,26},
	{1,2,3,4,5,6,7,8,9,10,11,12,13,14,15,16,17,18,19,20,21,22,23,24,25,26},
	{1,2,3,4,5,6,7,8,10,11,12,14,15,17,18,19,20,21,22,23,24,25,26},
	{2,4,6,8,10,12,13,14,21,22,24},
	{1,5,11,17},
	{3,6,9,11,15,16,18,20,23,25,26},
	{1,2,3,4,5,6,7,8,11,12,14,15,17,18,19,20,21,22,24,26},
	{1,2,4,5,6,7,9,11,12,14,16,17,19,21,23,24,25},
	{3,6,11,15,16,20,23,25,26},
	{1,2,4,5,6,8,11,12,14,17,21,22,24},
	{2,4,6,8,9,11,12,14,16,21,22,23,24,25},
	{1,3,5,6,7,11,15,16,17,18,19,20,23,25,26},
	{2,3,4,6,8,12,14,15,18,20,21,22,24,26},
	{1,3,5,6,7,11,15,16,17,18,19,20,23,25,26},
	{1,2,3,4,5,6,8,9,11,12,14,15,16,17,20,21,22,23,24,25,26},
	{1,2,4,5,7,11,12,14,17,19,21,24},
	{2,3,4,6,8,9,11,12,14,15,16,20,21,22,23,24,25,26},
	{2,3,4,6,12,14,15,18,20,21,23,24,25,26},
	{1,2,4,5,6,8,9,11,12,14,16,17,21,22,23,24,25},
	{1,2,3,4,5,6,7,8,9,11,12,14,15,16,17,19,20,21,22,23,24,25,26},
	{1,2,3,5,6,7,10,11,13,15,17,19,20,25,26},
	{1,2,3,4,5,6,7,9,11,12,14,15,16,17,19,20,21,23,24,25,26},
	{1,2,3,4,5,6,8,11,12,14,15,17,20,21,22,24,26},
	{1,2,3,4,5,6,11,12,14,15,16,17,18,20,21,23,24,25,26},
	{1,2,3,4,5,6,9,10,11,12,14,15,16,17,20,21,23,24,25,26},
	{2,4,6,8,12,14,21,22,24},
	{1,2,3,4,5,6,11,12,14,15,17,18,20,21,24,26},
	{1,2,3,5,6,7,10,11,13,15,16,17,18,19,20,23,25,26},
	{1,2,3,4,5,6,7,8,10,11,12,13,14,15,16,17,19,20,21,22,23,24,25,26},
	{1,2,3,4,5,6,11,12,14,15,17,18,20,21,24,26},
	{1,2,3,4,5,6,8,9,10,11,12,14,15,16,17,20,21,22,23,24,25,26},
	{1,2,4,5,6,7,8,11,12,14,17,19,21,22,24},
	{2,4,10,12,13,14,21,24},
	{1,2,3,4,5,6,9,10,11,12,13,14,15,16,17,20,21,23,24,25,26},
	{1,2,3,4,5,6,8,10,11,12,13,14,15,17,20,21,22,24,25,26},
	{1,3,5,6,7,11,15,17,19,20,26},
	{2,4,6,8,10,12,13,14,21,22,24,25},
	{1,2,3,4,5,6,8,10,11,12,13,14,15,17,18,20,21,22,24,25,26},
	{1,2,3,4,5,6,7,8,9,10,11,12,13,14,15,16,17,19,20,21,22,23,24,25,26},
	{1,2,3,4,5,6,8,9,11,12,14,15,16,17,20,21,22,23,24,25,26},
	{1,2,4,5,6,7,8,10,11,12,13,14,17,19,21,22,24,25},
	{1,2,4,5,6,8,9,11,12,14,16,17,21,22,23,24,25},
	{1,3,5,6,10,11,13,15,17,18,20,26},
	{1,2,3,5,6,7,10,11,13,15,17,19,20,23,25,26},
	{1,2,3,4,5,6,7,8,10,11,12,13,14,15,17,19,20,21,22,24,26},
	{1,5,6,9,11,16,17,23,25},
	{2,3,4,6,9,11,12,14,15,16,18,20,21,23,24,25,26},
	{23,25},
	{1,2,4,5,6,8,9,11,12,14,16,17,21,22,23,24,25},
	{}];

POTENTIAL_ACT = [{3,4,5,6,8,9,10,11,12,15,17,18,19,21,22,23,25,27,28,29,30,32,33,34,36,38,40,41,42,43,44,45,47,49,50,52,54,56,57,58,61,62,63,64,65,66,67,69,70,71,72,73,74,76,77,78,80,81,82,83,84,85,86,87,88,91},
	{3,4,5,6,7,8,9,10,11,13,14,15,16,17,18,19,20,21,22,23,24,26,27,28,29,30,31,33,34,35,36,37,38,40,41,42,43,44,45,46,49,50,52,53,55,57,58,59,60,61,62,63,64,65,66,67,68,69,70,71,72,73,74,75,76,77,79,80,81,82,83,84,86,87,89,91},
	{2,4,5,7,8,9,12,17,18,20,21,22,23,25,27,28,29,30,32,34,36,37,38,40,41,42,43,44,45,48,49,51,54,55,56,57,59,60,62,63,64,65,66,67,69,70,71,72,73,76,77,78,80,81,82,85,86,87,89},
	{3,4,5,6,7,8,9,10,11,13,14,15,16,17,18,19,20,21,22,23,24,26,27,28,29,30,31,34,35,36,37,38,40,41,43,44,45,46,49,50,52,53,55,57,58,59,60,61,62,64,65,66,67,68,69,71,72,73,74,75,76,77,79,80,81,82,83,84,87,89,91},
	{3,4,5,6,8,9,10,11,12,15,17,18,19,21,22,23,25,27,28,29,30,32,33,34,36,38,40,41,42,43,44,45,47,49,50,52,54,56,57,58,61,62,63,64,65,66,67,69,70,71,72,73,74,76,77,78,80,81,82,83,84,85,86,87,88,91},
	{2,3,4,5,6,7,8,9,10,11,12,13,14,15,16,17,18,19,20,21,22,23,24,25,26,27,28,29,30,32,34,35,36,37,38,39,40,41,42,43,44,45,46,48,49,50,51,52,53,54,55,56,57,59,60,61,62,63,64,65,66,67,68,69,70,71,72,73,74,76,77,78,79,80,81,82,83,84,85,86,87,88,89,91},
	{6,10,11,12,17,25,27,29,30,32,33,40,41,42,43,44,45,49,50,54,56,58,62,63,64,70,71,74,78,81,83,86,87},
	{3,4,5,6,7,10,11,13,14,15,16,17,19,20,21,22,23,24,26,28,30,35,36,38,41,43,44,45,46,49,52,53,55,57,59,61,62,65,68,71,73,74,77,79,80,81,82,83,84,87,91},
	{4,6,9,10,14,17,18,19,20,27,29,34,38,39,40,42,44,48,50,53,57,59,61,62,64,67,73,76,81,82,84,88,89,91},
	{8,10,17,21,22,30,32,33,34,35,36,38,42,43,44,45,46,63,67,70,71,73,75,76,77,79,80,81,83,85,86,87},
	{3,4,5,6,8,9,10,11,12,14,15,16,17,18,19,20,21,22,23,25,27,28,29,30,32,33,34,36,37,38,39,40,41,42,43,44,45,47,48,49,50,51,52,53,54,56,57,58,59,61,62,63,64,65,66,67,69,70,71,72,73,74,76,77,78,80,81,82,83,84,85,86,87,88,89,91},
	{3,4,5,6,7,8,9,10,11,13,14,15,16,17,18,19,20,21,22,23,24,26,27,28,30,34,35,36,37,38,40,41,43,44,45,46,49,50,52,53,55,57,58,59,60,61,62,64,65,66,67,68,69,71,72,73,74,75,76,77,79,80,81,82,83,84,87,89,91},
	{8,17,22,30,32,33,34,35,36,38,42,44,46,63,70,71,75,76,77,79,80,81,83,85,86,87},
	{3,4,5,6,7,8,9,10,11,13,14,15,16,17,18,19,20,21,22,23,24,26,27,28,30,34,35,36,37,38,40,41,43,44,45,46,49,50,52,53,55,57,58,59,60,61,62,64,65,66,67,68,69,71,72,73,74,75,76,77,79,80,81,82,83,84,87,89,91},
	{2,4,5,7,8,9,12,17,18,20,21,22,23,25,27,28,29,30,32,34,36,37,38,40,41,42,43,44,45,48,49,51,54,55,56,57,59,60,62,63,64,65,66,67,69,70,71,72,73,76,77,78,80,81,82,85,86,87,89},
	{3,4,5,6,9,10,14,16,17,18,19,20,22,27,29,32,34,37,38,39,40,42,44,48,50,51,53,54,56,57,59,61,62,64,66,67,70,71,73,76,81,82,84,88,89,91},
	{3,4,5,6,8,9,10,11,12,15,17,18,19,21,22,23,25,27,28,29,30,32,33,34,36,38,40,41,42,43,44,45,47,49,50,52,54,56,57,58,61,62,63,64,65,66,67,69,70,71,72,73,74,76,77,78,80,81,82,83,84,85,86,87,88,91},
	{2,4,5,7,9,12,25,27,29,30,34,41,42,44,45,48,49,54,55,56,60,66,69,70,72,80,85,89},
	{6,10,11,12,17,25,27,29,30,32,33,40,41,42,43,44,45,49,50,54,56,58,62,63,64,70,71,74,78,81,83,86,87},
	{2,4,5,7,8,9,12,17,18,20,21,22,23,25,27,28,29,30,32,34,36,37,38,40,41,42,43,44,45,48,49,51,54,55,56,57,59,60,62,63,64,65,66,67,69,70,71,72,73,76,77,78,80,81,82,85,86,87,89},
	{3,4,5,6,7,8,9,10,11,13,14,15,16,17,18,19,20,21,22,23,24,26,27,28,30,34,35,36,37,38,40,41,43,44,45,46,49,50,52,53,55,57,58,59,60,61,62,64,65,66,67,68,69,71,72,73,74,75,76,77,79,80,81,82,83,84,87,89,91},
	{3,4,5,6,7,10,11,13,14,15,16,17,19,20,21,22,23,24,26,28,30,35,36,38,41,43,44,45,46,49,52,53,55,57,59,61,62,65,68,71,73,74,77,79,80,81,82,83,84,87,91},
	{3,4,5,6,9,10,14,16,17,18,19,20,22,23,27,29,32,33,34,37,38,39,40,42,44,45,48,50,51,53,54,56,57,59,60,61,62,64,66,67,70,71,73,76,81,82,84,86,88,89,90,91},
	{3,4,5,6,7,8,9,10,11,13,14,15,16,17,18,19,20,21,22,23,24,26,27,28,29,30,31,34,35,36,37,38,40,41,43,44,45,46,49,50,52,53,55,57,58,59,60,61,62,64,65,66,67,68,69,71,72,73,74,75,76,77,79,80,81,82,83,84,87,89,91},
	{3,4,5,6,9,10,14,16,17,18,19,20,22,23,27,29,32,33,34,35,36,37,38,39,40,42,44,45,48,50,51,53,54,56,57,59,60,61,62,63,64,66,67,70,71,73,76,77,79,80,81,82,83,84,86,88,89,90,91},
	{2,4,5,7,8,9,12,17,18,20,21,22,23,25,27,28,29,30,32,34,36,37,38,40,41,42,43,44,45,48,49,51,54,55,56,57,59,60,62,63,64,65,66,67,69,70,71,72,73,76,77,78,80,81,82,85,86,87,89}];
